c turning on binary mode checking
c parsing input formula with 259840 variables and 1039934 clauses
c finished parsing, read 3310039 bytes from proof file
c detected empty clause; start verification via backward checking
c 6425 of 1039934 clauses in core                            
c 2039 of 126394 lemmas in core using 51561 resolution steps
c 0 RAT lemmas in core; 284 redundant literals in core lemmas
s VERIFIED
c verification time: 1.374 seconds
